

******************************************************************************
This program contains Ipopt, a library for large-scale nonlinear optimization.
 Ipopt is released as open source code under the Eclipse Public License (EPL).
         For more information visit https://github.com/coin-or/Ipopt
******************************************************************************

This is Ipopt version 3.14.11, running with linear solver MUMPS 5.5.1.

Number of nonzeros in equality constraint Jacobian...:        6
Number of nonzeros in inequality constraint Jacobian.:        0
Number of nonzeros in Lagrangian Hessian.............:        5

Total number of variables............................:        5
                     variables with only lower bounds:        0
                variables with lower and upper bounds:        0
                     variables with only upper bounds:        0
Total number of equality constraints.................:        2
Total number of inequality constraints...............:        0
        inequality constraints with only lower bounds:        0
   inequality constraints with lower and upper bounds:        0
        inequality constraints with only upper bounds:        0

iter    objective    inf_pr   inf_du lg(mu)  ||d||  lg(rg) alpha_du alpha_pr  ls
   0  3.0000000e+00 1.00e+00 2.00e+00  -1.0 0.00e+00    -  0.00e+00 0.00e+00   0
   1  1.2500000e+00 2.50e-01 0.00e+00  -1.0 1.00e+00    -  1.00e+00 1.00e+00f  1
   2  1.0625000e+00 6.25e-02 0.00e+00  -1.7 2.50e-01    -  1.00e+00 1.00e+00h  1
   3  1.0156250e+00 1.56e-02 0.00e+00  -2.5 1.25e-01    -  1.00e+00 1.00e+00h  1
   4  1.0039062e+00 3.91e-03 0.00e+00  -3.8 6.25e-02    -  1.00e+00 1.00e+00h  1
   5  1.0009766e+00 9.77e-04 0.00e+00  -3.8 3.12e-02    -  1.00e+00 1.00e+00h  1
   6  1.0002441e+00 2.44e-04 0.00e+00  -5.7 1.56e-02    -  1.00e+00 1.00e+00h  1
   7  1.0000610e+00 6.10e-05 0.00e+00  -5.7 7.81e-03    -  1.00e+00 1.00e+00h  1
   8  1.0000153e+00 1.53e-05 0.00e+00  -5.7 3.91e-03    -  1.00e+00 1.00e+00h  1
   9  1.0000038e+00 3.81e-06 0.00e+00  -8.6 1.95e-03    -  1.00e+00 1.00e+00h  1
iter    objective    inf_pr   inf_du lg(mu)  ||d||  lg(rg) alpha_du alpha_pr  ls
  10  1.0000010e+00 9.54e-07 0.00e+00  -8.6 9.77e-04    -  1.00e+00 1.00e+00h  1
  11  1.0000002e+00 2.38e-07 0.00e+00  -8.6 4.88e-04    -  1.00e+00 1.00e+00h  1
  12  1.0000001e+00 5.96e-08 0.00e+00  -8.6 2.44e-04    -  1.00e+00 1.00e+00h  1
  13  1.0000000e+00 1.49e-08 0.00e+00  -8.6 1.22e-04    -  1.00e+00 1.00e+00h  1
  14  1.0000000e+00 3.73e-09 0.00e+00  -9.0 6.10e-05    -  1.00e+00 1.00e+00h  1

Number of Iterations....: 14

                                   (scaled)                 (unscaled)
Objective...............:   1.0000000037252903e+00    1.0000000037252903e+00
Dual infeasibility......:   0.0000000000000000e+00    0.0000000000000000e+00
Constraint violation....:   3.7252902984619141e-09    3.7252902984619141e-09
Variable bound violation:   0.0000000000000000e+00    0.0000000000000000e+00
Complementarity.........:   0.0000000000000000e+00    0.0000000000000000e+00
Overall NLP error.......:   3.7252902984619141e-09    3.7252902984619141e-09


Number of objective function evaluations             = 15
Number of objective gradient evaluations             = 15
Number of equality constraint evaluations            = 15
Number of inequality constraint evaluations          = 0
Number of equality constraint Jacobian evaluations   = 15
Number of inequality constraint Jacobian evaluations = 0
Number of Lagrangian Hessian evaluations             = 14
Total seconds in IPOPT                               = 0.008

EXIT: Optimal Solution Found.
 
Ipopt 3.14.11: Optimal Solution Found
